\* Elektronikproblemet *\
Maximize
Inkomster/dag_som_ska_maximeras: 25 IC_komponenter + 10 Kretskort
Subject To
_C1: 3 IC_komponenter + 2 Kretskort <= 250
_C2: 4 IC_komponenter + Kretskort <= 200
Bounds
0 <= IC_komponenter
0 <= Kretskort
Generals
IC_komponenter
Kretskort
End
